19,0	0,0	5,2	14,7	0,0	0,0	0,0	0,0	0,0	7,7
7,5	13,8	0,0	13,4	18,9	0,0	0,0	12,9	0,0	0,0
0,0	0,0	8,8	0,0	5,7	12,0	0,0	0,0	10,3	0,0
5,6	0,0	10,9	0,0	0,0	0,0	14,5	0,0	0,0	0,0
0,0	10,1	0,0	19,4	19,6	0,0	0,0	5,1	0,0	0,0
0,0	19,8	5,6	0,0	7,4	19,2	0,0	0,0	18,2	0,0
0,0	14,2	0,0	10,5	0,0	0,0	11,6	0,0	0,0	15,2
11,5	0,0	19,6	0,0	0,0	0,0	0,0	0,0	0,0	6,4
0,0	9,3	0,0	11,5	10,9	0,0	0,0	16,3	0,0	0,0
0,0	0,0	17,5	0,0	0,0	7,8	14,9	0,0	0,0	16,8
0,0	15,8	0,0	0,0	5,4	0,0	13,8	0,0	14,8	17,3
19,7	0,0	17,8	0,0	10,5	0,0	10,7	5,5	17,2	0,0
0,0	19,8	0,0	0,0	0,0	11,1	0,0	16,3	11,9	17,3
9,0	18,1	13,9	0,0	0,0	17,4	0,0	15,5	20,0	0,0
19,3	0,0	5,1	0,0	11,5	11,4	19,4	14,7	0,0	0,0
0,0	6,5	0,0	18,3	0,0	10,0	0,0	15,1	0,0	0,0
13,1	0,0	5,9	16,4	9,5	0,0	0,0	6,2	0,0	0,0
0,0	0,0	12,7	0,0	0,0	12,1	17,0	0,0	18,4	19,0
9,8	0,0	0,0	14,5	8,7	14,9	12,7	11,1	0,0	10,1
0,0	10,7	0,0	11,6	0,0	0,0	16,0	0,0	6,7	13,1
									
3,8	4,8	3,2	3,7	4,9	3,1	3,1	3,3	3,4	3,4
